 H  C 
 1.0000000000000000
     9.9265065096106770    0.0000000000000000    0.0000000000000000
     0.1120904275182729    9.8721256225455143    0.0000000000000000
    -0.0877351734747390   -0.1952296039984799    9.9439476634759192
 H   C  
   4   1
Cartesian
  5.3564605105570857  3.9454476705957635  3.5858050596426567
  3.9288518028251889  4.6591164099166855  4.3580120198978234
  5.5007421205665707  5.4928646588606149  4.3955587314462745
  5.2426715045924572  4.0056720560188177  5.3613995794884755
  5.0132657015411013  4.5212715997923585  4.4288331656015805
