 H  C 
 1.0000000000000000
    10.1837519886218590    0.0000000000000000    0.0000000000000000
    -0.1908354816973296   10.2972060902570792    0.0000000000000000
     0.0428449612416824   -0.0014391678571112    9.8034879139121838
 H   C  
   4   1
Cartesian
  5.4186874086488723  4.1892586851504259  3.5349324547124548
  3.9404477515485370  4.9402768224481175  4.2946362334799248
  5.5334199747577548  5.8215863562497043  4.3413861754915830
  5.3228889899961054  4.2897582258028955  5.2842968361878198
  5.0531719168330591  4.8097855423513867  4.3636206433962075
