 H  C 
 1.0000000000000000
    10.0236003683133426    0.0000000000000000    0.0000000000000000
     0.0103662901211294    9.8910183735055863    0.0000000000000000
     0.2774482642843255    0.2761572534258712   10.2072203194122153
 H   C  
   4   1
Cartesian
  5.5009051521388024  4.1222444931781350  3.6835836525780041
  4.0835477342394517  4.8687461521740696  4.4786294975128467
  5.6627809894389687  5.7149588764583603  4.5188691413481585
  5.4515672321430753  4.2688669441226539  5.5007525913509872
  5.1734499307789648  4.7433427415271465  4.5447385501251611
