 H  C 
 1.0000000000000000
    10.0983797403458500    0.0000000000000000    0.0000000000000000
    -0.1069257643185600    9.9602440928167031    0.0000000000000000
    -0.0004688522020632   -0.0383936105021749    9.7824962135909974
 H   C  
   4   1
Cartesian
  5.3840427732996021  4.0340030074356390  3.5309991372095215
  3.9332439719487668  4.7657492745539054  4.2886507317587954
  5.5139960751945978  5.6157297319561401  4.3330712557486324
  5.2891389777210778  4.1265938831675433  5.2748795825152897
  5.0365942381128876  4.6386160731403354  4.3614060239761621
