 H  C 
 1.0000000000000000
     9.9461915018092775    0.0000000000000000    0.0000000000000000
    -0.2052947386260599    9.8572492957956666    0.0000000000000000
     0.2590003745401944    0.1190770465511620    9.9133887645663421
 H   C  
   4   1
Cartesian
  5.3595624209848962  4.0530367309525150  3.5739681026795629
  3.9386742223897544  4.7873837654954707  4.3476177320061273
  5.4912349124417910  5.6283893884803948  4.3881051180892943
  5.3102495583443918  4.1750835361052276  5.3466232973072998
  5.0239563934474845  4.6529958052848315  4.4096976350522041
