 H  C 
 1.0000000000000000
    10.2191954558261173    0.0000000000000000    0.0000000000000000
     0.0271423223374408    9.7816362168585087    0.0000000000000000
     0.2910667238726167   -0.1005220120868072   10.0481578548995873
 H   C  
   4   1
Cartesian
  5.6109377624211492  3.9372293069013007  3.6178116972461689
  4.1703619409146402  4.6508305216255854  4.4021751928908994
  5.7841043673641632  5.4856226105000347  4.4499014674397355
  5.5636761752551172  4.0175057106876730  5.4202551317202099
  5.2857807327862787  4.5246271975927277  4.4749528060293997
