 H  C 
 1.0000000000000000
     9.8078645402564408    0.0000000000000000    0.0000000000000000
    -0.3003588106144047   10.1785725920612808    0.0000000000000000
     0.2084038874632790   -0.2241292063440454    9.8710612471729622
 H   C  
   4   1
Cartesian
  5.2314152194174897  4.0567315378775195  3.5663044257734056
  3.8129597593719664  4.7934179247930313  4.3273772510272863
  5.3372724193989889  5.6562745780065988  4.3699891493699008
  5.1651824849565431  4.1098666719342072  5.3244524925272181
  4.8910701456900751  4.6525136478945930  4.3978567579527690
