 H  C 
 1.0000000000000000
    10.2176101246210802    0.0000000000000000    0.0000000000000000
    -0.1867217686318277    9.8329028897157453    0.0000000000000000
     0.1435484004095166   -0.0907965560561440   10.0949048754479023
 H   C  
   4   1
Cartesian
  5.4740047673389691  3.9675714403847637  3.6408826712338995
  4.0071351944899574  4.6852135449503720  4.4250988257545565
  5.6064951862972441  5.5190682496743264  4.4653926812672191
  5.3964199244853983  4.0455245851990815  5.4431893880906115
  5.1226477931828605  4.5533263065378184  4.4910716314833001
