 H  C 
 1.0000000000000000
    10.1703570181849248    0.0000000000000000    0.0000000000000000
     0.1031921955363393    9.9075833066383989    0.0000000000000000
     0.0817082991905874    0.0065283161471715   10.0044023872574197
 H   C  
   4   1
Cartesian
  5.5456648947011553  4.0339180507204757  3.6053372283371341
  4.0914302138242142  4.7661214066789626  4.3911808816076228
  5.7092669587066363  5.6043550614509305  4.4259951902738557
  5.4547413602593213  4.1235147410761535  5.3888251200849924
  5.2026149239460358  4.6233510463713854  4.4519094908738817
