 H  C 
 1.0000000000000000
     9.9264914841075758    0.0000000000000000    0.0000000000000000
    -0.2926463494836823    9.8843016536346457    0.0000000000000000
    -0.1207457207326035    0.0189500213253982   10.0024095304383742
 H   C  
   4   1
Cartesian
  5.1828400108571957  4.0261124800205881  3.6084694073345349
  3.7273295321534756  4.7556957691635064  4.3793290393651017
  5.2622451683363485  5.5946908025674045  4.4290639316320775
  5.0524257962455730  4.1284412796071184  5.3883595136036613
  4.8041212505550668  4.6279658419964056  4.4606504952887729
