 H  C 
 1.0000000000000000
     9.7963442052859797    0.0000000000000000    0.0000000000000000
     0.1705646256233797   10.2886736720220942    0.0000000000000000
    -0.0057151564772583    0.2134459271486186    9.9981959810122021
 H   C  
   4   1
Cartesian
  5.3399962006523038  4.2625999313758518  3.6073013615677092
  3.9442023832222173  5.0363868225512736  4.3832671633798048
  5.5031605292166637  5.9131411754281071  4.4269743380820614
  5.2429024203168044  4.3956092178484498  5.3946466835572888
  5.0047369123314542  4.9020831321472631  4.4540388527786279
