 H  C 
 1.0000000000000000
    10.1347432426649515    0.0000000000000000    0.0000000000000000
    -0.0564616763663564    9.9644223274534518    0.0000000000000000
    -0.0515426042492565   -0.1552804952176153   10.2892693888790223
 H   C  
   4   1
Cartesian
  5.4131816630229066  3.9999529111666097  3.7076015104947762
  3.9491381605435976  4.7153296948094070  4.5141049615858044
  5.5393478326985424  5.5691374771578310  4.5566591150321631
  5.3030470961780285  4.0659342583940621  5.5430171474773138
  5.0512828178035045  4.5885638440874823  4.5754958442571985
