 H  C 
 1.0000000000000000
    10.0751022909104648    0.0000000000000000    0.0000000000000000
     0.2016842630998640   10.1019155794380566    0.0000000000000000
     0.0707203206635365   -0.2300659715473698   10.2872202182487911
 H   C  
   4   1
Cartesian
  5.5291982316130017  4.0253938801488518  3.7045412514030427
  4.1032998905106908  4.7504062543936341  4.5110469128572728
  5.7096337452802910  5.6139859876570544  4.5495708411114073
  5.4390440595569078  4.0774418198365190  5.5473663587529076
  5.1989839902889523  4.6207476314997171  4.5828023536784093
