 H  C 
 1.0000000000000000
    10.0614749036903799    0.0000000000000000    0.0000000000000000
     0.2751956722934981    9.9361090970539934    0.0000000000000000
     0.2981274623590494   -0.0412932911242148   10.1252346332618561
 H   C  
   4   1
Cartesian
  5.6329489844453589  4.0209829384003717  3.6538070143564441
  4.2356761628574624  4.7507354736625071  4.4422624052754713
  5.8410004690383532  5.6005356651843847  4.4880611043128091
  5.5892685502960138  4.1156388859436888  5.4595762379820414
  5.3252040883035878  4.6227625766989613  4.5095678023949839
