 H  C 
 1.0000000000000000
    10.0049849954144463    0.0000000000000000    0.0000000000000000
    -0.2048014068377857   10.1791716107446888    0.0000000000000000
     0.2108812806513896   -0.1313540662901156   10.1449320601702659
 H   C  
   4   1
Cartesian
  5.3743063352596883  4.0937600481559935  3.6553520628241714
  3.9387913194571280  4.8300107912320609  4.4538363537240917
  5.5011055928420172  5.6981581056237056  4.4909784689862180
  5.3045336648313706  4.1683346679269704  5.4697376704591303
  5.0315822359603954  4.7002521484138198  4.5102796661343492
