 H  C 
 1.0000000000000000
     9.9602240869926959    0.0000000000000000    0.0000000000000000
     0.1960346097649565    9.9077285392284882    0.0000000000000000
     0.0663115705525291    0.2839837096336079   10.1658443636576656
 H   C  
   4   1
Cartesian
  5.4593313998537205  4.1391302681075475  3.6670741946235230
  4.0534278380757316  4.8803002861558991  4.4623876462996490
  5.6425208763397006  5.7281748726001682  4.4994961932081132
  5.3744629734930145  4.2749573949272976  5.4816478785655782
  5.1277242662010849  4.7530149616534993  4.5252816927526762
