 H  C 
 1.0000000000000000
     9.8340980613288025    0.0000000000000000    0.0000000000000000
    -0.0949928073764372   10.1032184861352015    0.0000000000000000
     0.0433530498007529    0.1989735974687481    9.9395087208005286
 H   C  
   4   1
Cartesian
  5.2750360678950043  4.1845460080921395  3.5915961736392252
  3.8566913584342792  4.9452969099555029  4.3651373734913488
  5.3918490780091828  5.8011044269432972  4.4010244245866943
  5.1780417361332542  4.3144159953137704  5.3592142845494886
  4.9235913695258660  4.8096927193905916  4.4247107700341015
