 H  C 
 1.0000000000000000
     9.7794685264817964    0.0000000000000000    0.0000000000000000
     0.1198331750433163    9.8160147050637008    0.0000000000000000
     0.0655340290468148    0.0355448995590593    9.9073546603693128
 H   C  
   4   1
Cartesian
  5.3368802099206700  4.0033923975881969  3.5750271424038145
  3.9448652245486246  4.7342716440748287  4.3420924179966471
  5.4924459493997340  5.5685271391250684  4.3920224125080587
  5.2508214323050568  4.1066125388963597  5.3419685464930815
  5.0077767887179148  4.6024423693962229  4.4096514037420000
