 H  C 
 1.0000000000000000
    10.0938620100678520    0.0000000000000000    0.0000000000000000
     0.0190086574693475   10.2953698074829685    0.0000000000000000
     0.1712378391415215   -0.0854043168871227   10.2793403818098774
 H   C  
   4   1
Cartesian
  5.5013027376116872  4.1558219933402212  3.7064112684401995
  4.0683050206763376  4.9088592625722614  4.5054708024680696
  5.6515531138769122  5.7805401398432501  4.5526766174448587
  5.4313838757656958  4.2418755596072799  5.5442529420150457
  5.1631348023636487  4.7746345720271943  4.5779421540846217
