 H  C 
 1.0000000000000000
     9.7064861381121084    0.0000000000000000    0.0000000000000000
     0.0244383615692086    9.8210672973475273    0.0000000000000000
    -0.0980257533021176   -0.0526234820700438    9.8829666736141402
 H   C  
   4   1
Cartesian
  5.1968629848636247  3.9782097926357434  3.5620403773053697
  3.7993658871957803  4.6990777747214008  4.3342577774887419
  5.3227655086601038  5.5299881091011951  4.3808000400485820
  5.0839286060602182  4.0608236454437181  5.3282333866820464
  4.8462668642513975  4.5689928868359004  4.3938515238976894
