 H  C 
 1.0000000000000000
     9.7189967537399760    0.0000000000000000    0.0000000000000000
     0.1314610348039942    9.7710863694551957    0.0000000000000000
     0.1361198606191809    0.0906945683781456   10.2190725044681319
 H   C  
   4   1
Cartesian
  5.3368333525427287  4.0116263548162969  3.6841824327412862
  3.9571401938836783  4.7273808502606487  4.4746902385435785
  5.5016825156828846  5.5651900754520058  4.5234864188394175
  5.2593155599190355  4.1159103122798157  5.5106799873472827
  5.0089682609471211  4.6065345231075723  4.5482840206285040
