 H  C 
 1.0000000000000000
     9.8721632779046562    0.0000000000000000    0.0000000000000000
    -0.0089137606269737   10.1406004573014616    0.0000000000000000
    -0.2981232136737691   -0.1784261252515535    9.8070575532798632
 H   C  
   4   1
Cartesian
  5.1957602451579694  4.0573111498971537  3.5314821683494260
  3.7556217668646119  4.7899023162381322  4.3003388654464096
  5.3121878599529815  5.6546108054249018  4.3402517687555946
  5.0561097846705083  4.1268051286184910  5.2857241565887199
  4.8389551553942312  4.6575500471710090  4.3648161387078650
