 H  C 
 1.0000000000000000
     9.7767509641915726    0.0000000000000000    0.0000000000000000
    -0.2684578954042469   10.0883413221249771    0.0000000000000000
     0.1694478821074284    0.1074451846232883   10.1828760609639293
 H   C  
   4   1
Cartesian
  5.2149076028545025  4.1431188086855171  3.6734173722466164
  3.8041401783649929  4.8944794903894975  4.4676419344322120
  5.3224536417561632  5.7562712931621292  4.5118688856870914
  5.1463716246469682  4.2562125329981688  5.4906112527655830
  4.8681360970885290  4.7553194765393574  4.5284017403301942
