 H  C 
 1.0000000000000000
     9.9846111436881451    0.0000000000000000    0.0000000000000000
    -0.1994850231296742    9.7080093441535134    0.0000000000000000
    -0.2218016040442415   -0.2212379215677680    9.9187803896794939
 H   C  
   4   1
Cartesian
  5.2109065943956185  3.8703989692004797  3.5744623130839948
  3.7449564155404489  4.5590997574746268  4.3493333218472072
  5.2997173644177717  5.3909129557122242  4.3901792548864069
  5.0760426511165608  3.9287280833751730  5.3518511933518260
  4.8328710821395449  4.4354799226344017  4.4182579157372333
