 H  C 
 1.0000000000000000
     9.7305774532720424    0.0000000000000000    0.0000000000000000
    -0.0461104805716586   10.1803454548171182    0.0000000000000000
     0.0301393366460701   -0.2126375159512300    9.7729144480310932
 H   C  
   4   1
Cartesian
  5.2297270784886036  4.0642160642102443  3.5269558731814197
  3.8262388842858144  4.7999371988663748  4.2925940350982099
  5.3610956339285671  5.6686525525999318  4.3229084593786391
  5.1370884039619815  4.1240613788735843  5.2690590937327926
  4.8842641355557310  4.6617851076480656  4.3484928964115213
