 H  C 
 1.0000000000000000
     9.9340064360801836    0.0000000000000000    0.0000000000000000
     0.1365445068837834    9.9292857969010893    0.0000000000000000
     0.0836457528111883    0.2180306382983859    9.8888696725327634
 H   C  
   4   1
Cartesian
  5.4308984942268284  4.1178715043739214  3.5651243365336023
  4.0238216170161927  4.8661542527874797  4.3359581574390766
  5.6013212980293101  5.7106555933130423  4.3807086230429277
  5.3441041010698465  4.2521799025343094  5.3376055542547443
  5.1017830119658667  4.7342095863535576  4.4035426597464049
