 H  C 
 1.0000000000000000
    10.1106722512606364    0.0000000000000000    0.0000000000000000
     0.0857861469376445   10.1278092983191570    0.0000000000000000
     0.0765380309810261    0.0872761788398915    9.7534292821177697
 H   C  
   4   1
Cartesian
  5.5028852651895042  4.1520514058535030  3.5130294202878236
  4.0581151428341027  4.8991702471523837  4.2833483682656581
  5.6644857352683564  5.7654510212004650  4.3178720708138831
  5.4237858593415096  4.2626343509631939  5.2601573211046109
  5.1625011014376714  4.7716050435132829  4.3429390495754037
