 H  C 
 1.0000000000000000
    10.0695605479061268    0.0000000000000000    0.0000000000000000
    -0.2259415977233284    9.9874826003737240    0.0000000000000000
    -0.0737317699603857   -0.2151365491741786   10.0045862157037000
 H   C  
   4   1
Cartesian
  5.2998212343956776  3.9835185594406757  3.6100805055438272
  3.8282367924589020  4.6964014095964126  4.3803939535081380
  5.3942770324708080  5.5573905978415645  4.4240280845695530
  5.1850382412148868  4.0383049412487777  5.3890793650656574
  4.9287433538656948  4.5727291874212650  4.4525970145664813
