 H  C 
 1.0000000000000000
     9.9030900239852571    0.0000000000000000    0.0000000000000000
    -0.2702179023669131   10.1390051229378795    0.0000000000000000
     0.0711434326887783    0.1651123174067993   10.2796023515166848
 H   C  
   4   1
Cartesian
  5.2489364201392634  4.1895462638751599  3.7055024196343642
  3.8048613170204870  4.9366634127467206  4.5028241071320778
  5.3414605933846957  5.8106932323296094  4.5559428560545108
  5.1582859425010721  4.3138065291982972  5.5425000942977958
  4.8933265704787106  4.8064682260296676  4.5745278850803679
