 H  C 
 1.0000000000000000
    10.2409309561963013    0.0000000000000000    0.0000000000000000
    -0.1570902136095726    9.9710306711155621    0.0000000000000000
    -0.0762531205782877   -0.1612009437914482   10.1601136652119699
 H   C  
   4   1
Cartesian
  5.4180823436768248  3.9999990846387274  3.6633987381996933
  3.9294517933390094  4.7212269579333137  4.4551197568076741
  5.5365581606458685  5.5710104035370946  4.4942107131448719
  5.3021399982151669  4.0634264389064372  5.4803940877292536
  5.0395862887675644  4.5866412361080027  4.5265354704881302
